NAME          HOTMIX
ROWS
 G  N
 G  AM-N
 G  NI-N
 G  UR-N
 G  SRN
 G  P
 G  K
 G  S
 G  ZN
 G  B
 L  CL
 G  WATR
 G  DEN
 G  MINA
 G  MAXA
 G  MINK
 G  MAXK
 E  54
 E  HCAP
 E  HSOL
 E  HREA
 G  MINT
 G  MAXT
 E  WT
 N  COST
 N  PRICE
COLUMNS
*234567890123456789012345678901234567890123456789012345678901
    WATER     WATR          1.000000   DEN           0.119760   
    WATER     HCAP          1.000000   HSOL          0.400000   
    WATER     WT            1.000000   COST          0.000000   
    WATER     PRICE        15.000000   SCALE      2000.000000   
    HOTWATER  WATR          1.000000   DEN           0.119760   
    HOTWATER  HCAP          1.000000   HREA          2.000000   
    HOTWATER  WT            1.000000   COST          1.350000   
    HOTWATER  PRICE        16.687500   SCALE      2000.000000   
    I320000   N             0.320000   AM-N          0.080000   
    I320000   NI-N          0.080000   UR-N          0.160000   
    I320000   WATR          0.200000   DEN           0.090869   
    I320000   HCAP          0.520000   WT            1.000000   
    I320000   COST        102.000000   PRICE       142.500000   
    I320000   SCALE      2000.000000   
    I100000   N             0.100000   AM-N          0.100000   
    I100000   S             0.050000   ZN            0.100000   
    I100000   WATR          0.600000   DEN           0.094690   
    I100000   HCAP          0.740000   WT            1.000000   
    I100000   COST        190.000000   PRICE       252.500000   
    I100000   SCALE      2000.000000   
    I120000   N             0.120000   AM-N          0.120000   
    I120000   S             0.260000   WATR          0.365000   
    I120000   DEN           0.089714   HCAP          0.540000   
    I120000   WT            1.000000   COST        135.000000   
    I120000   PRICE       183.750000   SCALE      2000.000000   
    INSUR30   N             0.300000   UR-N          0.300000   
    INSUR30   SRN           0.150000   WATR          0.500000   
    INSUR30   DEN           0.095250   HCAP          0.700000   
    INSUR30   WT            1.000000   COST        480.000000   
    INSUR30   PRICE       600.000000   SCALE      2000.000000   
    I005400   P             0.540000   WATR          0.180000   
    I005400   DEN           0.075916   54           -1.000000   
    I005400   WT            1.000000   COST        168.000000   
    I005400   PRICE       225.000000   SCALE      2000.000000   
    IH2SO4    S             0.320000   WATR          0.040000   
    IH2SO4    DEN           0.065000   MINA          0.324000   
    IH2SO4    MAXA          0.324000   HCAP          0.350000   
    IH2SO4    HREA          8.938000   WT            1.000000   
    IH2SO4    COST         50.000000   PRICE        77.500000   
    IH2SO4    SCALE      2000.000000   
    I115200   N             0.110000   AM-N          0.110000   
    I115200   P             0.520000   DEN           0.115392   
    I115200   MINA          0.077000   MAXA          0.077000   
    I115200   HCAP          0.300000   HSOL          1.000000   
    I115200   WT            1.000000   COST        183.000000   
    I115200   PRICE       228.800000   SCALE      2000.000000   
    I820000   N             0.822000   AM-N          0.822000   
    I820000   DEN           0.194089   MINA         -1.000000   
    I820000   MAXA         -1.000000   HCAP          0.623000   
    I820000   HREA         27.650000   WT            1.000000   
    I820000   COST        175.000000   PRICE       233.750000   
    I820000   SCALE      2000.000000   
    I200000   N             0.200000   AM-N          0.200000   
    I200000   WATR          0.757000   DEN           0.133275   
    I200000   MINA         -0.243000   MAXA         -0.243000   
    I200000   HCAP          0.714600   HREA          5.164800   
    I200000   WT            1.000000   COST         40.000000   
    I200000   PRICE        65.000000   SCALE      2000.000000   
    I000037   K             0.377000   WATR          0.550000   
    I000037   DEN           0.103950   MINK         -0.450000   
    I000037   MAXK         -0.450000   HCAP          0.350000   
    I000037   HREA          1.970000   WT            1.000000   
    I000037   COST        400.000000   PRICE       515.000000   
    I000037   SCALE      2000.000000   
    I000030   K             0.300000   WATR          0.516000   
    I000030   DEN           0.100000   MINK         -0.358000   
    I000030   MAXK         -0.358000   HCAP          0.500000   
    I000030   HREA          2.000000   WT            1.000000   
    I000030   COST        372.000000   PRICE       480.000000   
    I000030   SCALE      2000.000000   
    I103400   N             0.100000   AM-N          0.100000   
    I103400   P             0.340000   WATR          0.380000   
    I103400   DEN           0.085470   HCAP          0.578000   
    I103400   WT            1.000000   COST        190.000000   
    I103400   PRICE       252.500000   SCALE      2000.000000   
    I130044   N             0.137500   NI-N          0.137500   
    I130044   K             0.445000   DEN           0.106864   
    I130044   HCAP          0.350000   HSOL          3.000000   
    I130044   WT            1.000000   COST        277.000000   
    I130044   PRICE       361.250000   SCALE      2000.000000   
    I460000   N             0.460000   UR-N          0.460000   
    I460000   DEN           0.156261   HCAP          0.371000   
    I460000   HSOL          1.900000   WT            1.000000   
    I460000   COST        160.000000   PRICE       200.000000   
    I460000   SCALE      2000.000000   
    I000025   K             0.250000   S             0.170000   
    I000025   WATR          0.500000   DEN           0.082000   
    I000025   HCAP          0.650000   WT            1.000000   
    I000025   COST        340.000000   PRICE       450.000000   
    I000025   SCALE      2000.000000   
    I000062   K             0.620000   CL            0.530000   
    I000062   DEN           0.060457   HCAP          0.160000   
    I000062   HSOL          1.800000   WT            1.000000   
    I000062   COST         90.000000   PRICE       127.500000   
    I000062   SCALE      2000.000000   
    I20B000   B             0.205000   DEN           0.162620   
    I20B000   HCAP          0.350000   WT            1.000000   
    I20B000   COST        920.000000   PRICE      1165.000000   
    I20B000   SCALE      2000.000000   
    I210000   N             0.210000   AM-N          0.210000   
    I210000   S             0.240000   DEN           0.153072   
    I210000   HCAP          0.340000   HSOL          0.420000   
    I210000   WT            1.000000   COST        110.000000   
    I210000   PRICE       137.500000   SCALE      2000.000000   
    I184600   N             0.180000   AM-N          0.180000   
    I184600   P             0.460000   DEN           0.120008   
    I184600   MINA         -0.032440   MAXA         -0.032440   
    I184600   HCAP          0.330000   HSOL          1.000000   
    I184600   WT            1.000000   COST        183.000000   
    I184600   PRICE       228.800000   SCALE      2000.000000   
    XXXXXXXX  COST          0.000000   PRICE         0.000000   
    XXXXXXXX  SCALE         1.000000   
    LASSO     DEN           0.101257   WT            1.000000   
    LASSO     COST          5.625000   PRICE         6.625000   
    LASSO     SCALE         2.469000   
    PROWL33E  DEN           0.100000   WT            1.000000   
    PROWL33E  COST          5.000000   PRICE         6.250000   
    PROWL33E  SCALE         1.250000   
    SQUADRON  DEN           0.100267   WT            1.000000   
    SQUADRON  COST          5.000000   PRICE         5.887500   
    SQUADRON  SCALE         1.246700   
    XXXXXXXX  COST          0.000000   PRICE         0.000000   
    XXXXXXXX  SCALE         1.000000   
    I005400A  MINA          0.130000   MAXA          0.219000   
    I005400A  54            1.000000   HCAP          0.372700   
    I005400A  HREA          2.662000   COST          0.000000   
    I005400A  PRICE         0.000000   SCALE      2000.000000   
    I005400K  MINK          0.902400   MAXK          1.031300   
    I005400K  54            1.000000   HCAP          0.372700   
    I005400K  HREA          5.134000   COST          0.000000   
    I005400K  PRICE         0.000000   SCALE      2000.000000   
    HEATCAP   HCAP         -1.000000   MINT          0.200000   
    HEATCAP   MAXT          0.800000   COST          0.000000   
    HEATCAP   PRICE         0.000000   SCALE         1.000000   
    HEATSOL   HSOL         -2.000000   MINT         -1.000000   
    HEATSOL   MAXT          1.000000   COST          0.000000   
    HEATSOL   PRICE         0.000000   SCALE         1.000000   
    HEATREAC  HREA         -2.000000   MINT          1.000000   
    HEATREAC  MAXT         -1.000000   COST          0.000000   
    HEATREAC  PRICE         0.000000   SCALE         1.000000   
    PRODUCT   WT           -1.000000   COST          0.006000   
    PRODUCT   PRICE         0.000000   SCALE         1.000000   
*234567890123456789012345678901234567890123456789012345678901
RHS
RANGES
ENDATA
